c File: instances/18_0.25_1.col
c
c Description: Random graph of size 18 vertices and P(0.25) of edges between any two vertices.
p col 18 153
e 1 4
e 1 6
e 1 15
e 1 16
e 2 4
e 2 5
e 2 6
e 2 14
e 2 17
e 3 12
e 3 13
e 3 14
e 3 18
e 4 5
e 4 6
e 4 8
e 4 14
e 4 17
e 5 10
e 6 15
e 6 16
e 6 18
e 7 8
e 7 12
e 7 13
e 7 15
e 7 18
e 8 10
e 8 15
e 8 18
e 9 13
e 9 16
e 9 17
e 10 12
e 11 13
e 11 16
e 12 13
e 12 16
e 14 15
e 14 18
e 15 17
e 16 18